data/solutions/recovery/degenerate/intermediate/binding/degenerate_intermediate_instance23/46.sol
Elapsed time: 0.05
Upper bound: 234916690.0
Planning weighted value: 8.7913617736e+11
C[0]=234916690.0
C[1]=233456318.0
C[2]=233354043.0
C[3]=230357443.0
C[4]=228984931.0
C[5]=228707610.0
C[6]=225985173.0
C[7]=223472234.0
C[8]=215446617.0
C[9]=213872474.0
C[10]=213852367.0
C[11]=0.0
y[0]=2
y[1]=9
y[2]=6
y[3]=10
y[4]=7
y[5]=2
y[6]=9
y[7]=8
y[8]=1
y[9]=7
y[10]=10
y[11]=6
y[12]=2
y[13]=5
y[14]=7
y[15]=10
y[16]=4
y[17]=3
y[18]=1
y[19]=7
y[20]=5
y[21]=9
y[22]=8
y[23]=2
y[24]=6
y[25]=3
y[26]=8
y[27]=3
y[28]=0
y[29]=1
y[30]=9
y[31]=2
y[32]=5
y[33]=3
y[34]=0
y[35]=8
y[36]=2
y[37]=8
y[38]=5
y[39]=0
y[40]=7
y[41]=1
y[42]=2
y[43]=4
y[44]=2
y[45]=5
y[46]=2
y[47]=3
y[48]=1
y[49]=0
y[50]=9
y[51]=6
y[52]=0
y[53]=4
y[54]=7
y[55]=3
y[56]=9
y[57]=0
y[58]=10
y[59]=9
y[60]=1
y[61]=6
y[62]=1
y[63]=4
y[64]=10
y[65]=6
y[66]=3
y[67]=2
y[68]=4
y[69]=5
y[70]=8
y[71]=5
y[72]=10
y[73]=7
y[74]=0
y[75]=4
y[76]=3
y[77]=2
